proyfinal/src/viki/013/andrea/andrea-localstore/experimentInOfficeAgust.take6/worker_2/38ec2696-c6e1-4e00-b27f-ae718c1f3a25.als.cnf.out
Reading from standard input... Use '--help' for help.
============================[ Problem Statistics ]=============================
|                                                                             |
|  Number of variables:         87638                                         |
|  Number of clauses:          161767                                         |
|  Parse time:                   0.03 s                                       |
|                                                                             |
============================[ Search Statistics ]==============================
| Conflicts |          ORIGINAL         |          LEARNT          | Progress |
|           |    Vars  Clauses Literals |    Limit  Clauses Lit/Cl |          |
===============================================================================
|       100 |   63217   108150   270456 |    39655      100     34 | 27.866 % |
|       250 |   63217   108150   270456 |    43620      250     40 | 27.866 % |
|       475 |   63217   108150   270456 |    47982      475     52 | 27.866 % |
|       812 |   63217   108150   270456 |    52780      812     68 | 27.866 % |
|      1318 |   63197   108030   270187 |    58058      992     58 | 27.889 % |
|      2077 |   63142   107806   269666 |    63864     1748     75 | 27.951 % |
|      3216 |   63142   107806   269666 |    70251     2887     83 | 27.952 % |
|      4924 |   63142   107806   269666 |    77276     4595     88 | 27.951 % |
|      7486 |   63120   107714   269455 |    85004     6910     80 | 27.977 % |
===============================================================================
restarts              : 46
conflicts             : 10907          (5737 /sec)
decisions             : 37413          (0.00 % random) (19679 /sec)
propagations          : 17248669       (9072574 /sec)
conflict literals     : 836844         (60.27 % deleted)
Memory used           : 27.35 MB
CPU time              : 1.90119 s

UNSATISFIABLE
